(assert (forall ((pkt_0_4_6_0  Int  )(state_group_0_state_0_5_7_0  Int  )(state_group_0_state_1_6_8_0  Int  )) (let ((_n0 state_group_0_state_1_6_8_0 ))
(let ((_n1 state_group_0_state_0_5_7_0 ))
(let ((_n2 true ))
(let ((_n3 (+   _n1   (ite  _n2  1 0) ) ))
(let ((_n4 (ite (=  _n0  0)  _n3   _n1  ) ))
(let ((_n5 998 ))
(let ((_n6 (<   _n5   _n1 ) ))
(let ((_n7 (not  _n6 ) ))
(let ((_n8 false ))
(let ((_n9 (ite  _n6   (ite  _n8  1 0)   _n0  ) ))
(let ((_n10 (<   (ite  _n8  1 0)   _n9 ) ))
(let ((_n11 (ite  _n6   _n8   _n10  ) ))
(let ((_n12 (or   _n11   _n6 ) ))
(let ((_n13 (not  _n12 ) ))
(let ((_n14 (+   _n1   (ite  _n13  1 0) ) ))
(let ((_n15 (ite (=  (ite  _n11  1 0)  1)  _n1   _n14  ) ))
(let ((_n16 (ite (=  (ite  _n7  1 0)  1)  _n15   _n1  ) ))
(let ((_n17 (ite  _n6   _n1   (ite  _n8  1 0)  ) ))
(let ((_n18 (<   _n17   (ite  _n8  1 0) ) ))
(let ((_n19 (and   _n6   _n18 ) ))
(let ((_n20 (or   _n19   _n7 ) ))
(let ((_n21 2 ))
(let ((_n22 (ite  _n20   (ite  _n8  1 0)   _n21  ) ))
(let ((_n23 (ite  _n20   (ite  _n8  1 0)   _n5  ) ))
(let ((_n24 (+   _n23   _n22 ) ))
(let ((_n25 (ite  _n20   (ite  _n8  1 0)   _n24  ) ))
(let ((_n26 (ite  _n20   _n1   (ite  _n8  1 0)  ) ))
(let ((_n27 (+   _n26   _n25 ) ))
(let ((_n28 (and   _n19   _n6 ) ))
(let ((_n29 pkt_0_4_6_0 ))
(let ((_n30 (ite  _n28   _n29   (ite  _n8  1 0)  ) ))
(let ((_n31 (+   _n30   _n30 ) ))
(let ((_n32 (ite  _n28   _n31   (ite  _n8  1 0)  ) ))
(let ((_n33 (+   _n1   _n32 ) ))
(let ((_n34 (ite (=  (ite  _n19  1 0)  1)  _n33   _n27  ) ))
(let ((_n35 (ite (=  (ite  _n6  1 0)  1)  _n34   _n16  ) ))
(let ((_n36 (=   _n35   _n4 ) ))
(let ((_n38 (ite (=  _n1  999)  (ite  _n2  1 0)   _n0  ) ))
(let ((_n39 (ite (=  _n0  0)  _n38   _n0  ) ))
(let ((_n40 (not  _n20 ) ))
(let ((_n41 (+   _n0   (ite  _n40  1 0) ) ))
(let ((_n42 (ite  _n28   _n21   (ite  _n8  1 0)  ) ))
(let ((_n43 (+   _n0   _n42 ) ))
(let ((_n44 (ite (=  (ite  _n19  1 0)  1)  _n43   _n41  ) ))
(let ((_n45 (ite (=  (ite  _n6  1 0)  1)  _n44   _n0  ) ))
(let ((_n46 (=   _n45   _n39 ) ))
(implies  (and (and (>= state_group_0_state_1_6_8_0 0) (< state_group_0_state_1_6_8_0 1024 ))  (and (and (>= state_group_0_state_0_5_7_0 0) (< state_group_0_state_0_5_7_0 1024 ))  (and (>= pkt_0_4_6_0 0) (< pkt_0_4_6_0 1024 )) ) )   (and  _n36  _n46 )  )))))))))))))))))))))))))))))))))))))))))))))))))
(check-sat)
(get-model)
(exit)